mapa = [|
         9,9,9,9,9,9|
         9,0,0,0,0,9|
         9,9,9,0,0,9|
         9,9,9,0,0,9|
         9,0,4,1,0,9|
         9,0,2,0,9,9|
         9,0,0,0,9,9|
         9,9,9,9,9,9|];
dimx = 8;
dimy = 6;
filav = 3;
colav = 5;
